
Gurobi 12.0.1 (win64, C++) logging started Tue Apr 22 09:15:17 2025

Set parameter Username
Set parameter LicenseID to value 2618661
Academic license - for non-commercial use only - expires 2026-02-05
Set parameter Threads to value 8
Set parameter LazyConstraints to value 1
Set parameter PreCrush to value 1
Set parameter Seed to value 10
Set parameter Cuts to value -1
Set parameter TimeLimit to value 28800
Set parameter NumericFocus to value 0
Set parameter SolutionLimit to value 10000
Gurobi Optimizer version 12.0.1 build v12.0.1rc0 (win64 - Windows Server 2022.0 (20348.2))

CPU model: AMD EPYC 7513 32-Core Processor, instruction set [SSE2|AVX|AVX2]
Thread count: 18 physical cores, 18 logical processors, using up to 8 threads

Non-default parameters:
SolutionLimit  10000
TimeLimit  28800
PreCrush  1
Seed  10
Threads  8
LazyConstraints  1

Optimize a model with 232 rows, 441 columns and 1260 nonzeros
Model fingerprint: 0x4f75c7ba
Variable types: 0 continuous, 441 integer (441 binary)
Coefficient statistics:
  Matrix range     [1e+00, 1e+00]
  Objective range  [6e+00, 6e+01]
  Bounds range     [1e+00, 1e+00]
  RHS range        [1e+00, 4e+00]

User MIP start produced solution with objective 548.454 (0.01s)
Loaded user MIP start with objective 548.454

Presolve removed 1 rows and 21 columns
Presolve time: 0.00s
Presolved: 231 rows, 420 columns, 1200 nonzeros
Variable types: 0 continuous, 420 integer (420 binary)

Root relaxation: objective 2.923362e+02, 67 iterations, 0.00 seconds (0.00 work units)

    Nodes    |    Current Node    |     Objective Bounds      |     Work
 Expl Unexpl |  Obj  Depth IntInf | Incumbent    BestBd   Gap | It/Node Time

     0     0  292.33623    0    -  548.45388  292.33623  46.7%     -    0s
     0     0  307.94455    0    -  548.45388  307.94455  43.9%     -    0s
     0     0  319.25762    0    -  548.45388  319.25762  41.8%     -    0s
     0     0  320.93098    0    -  548.45388  320.93098  41.5%     -    0s
     0     0  321.37940    0   38  548.45388  321.37940  41.4%     -    0s
     0     0  321.50629    0    -  548.45388  321.50629  41.4%     -    0s
     0     0  335.46779    0   24  548.45388  335.46779  38.8%     -    0s
     0     0  335.73303    0    -  548.45388  335.73303  38.8%     -    0s
     0     0  343.78790    0    -  548.45388  343.78790  37.3%     -    0s
     0     0  345.82341    0   39  548.45388  345.82341  36.9%     -    0s
     0     0  345.84151    0   30  548.45388  345.84151  36.9%     -    0s
     0     0  347.41393    0   42  548.45388  347.41393  36.7%     -    0s
     0     0  348.52789    0   44  548.45388  348.52789  36.5%     -    0s
     0     0  348.52789    0   41  548.45388  348.52789  36.5%     -    0s
     0     2  349.28899    0   54  548.45388  349.28899  36.3%     -    0s
H   35    38                     384.4476188  350.12122  8.93%  47.8    1s
*   38    47               6     358.4022742  350.12122  2.31%  50.1    1s

Cutting planes:
  Lazy constraints: 1244

Explored 183 nodes (6586 simplex iterations) in 4.10 seconds (0.52 work units)
Thread count was 8 (of 18 available processors)

Solution count 3: 358.402 384.448 548.454 

Optimal solution found (tolerance 1.00e-04)
Best objective 3.584022741505e+02, best bound 3.584022741505e+02, gap 0.0000%

User-callback calls 744, time in user-callback 3.48 sec
### START EXACT APPROACH ###
ProblemVariant: 6
### START PREPROCESSING ###
## Start infeasible path procedure ## 
Deleted arcs: 0
Infeasible tail paths: 0
Infeasible 2-node combinations: 0
Deleted arcs: 0
Infeasible tail paths: 0
Infeasible 2-node combinations: 0
## Start start solution procedure ##
Start solution with 4 Vehicles and total costs 548.454 in 0.0060878 s.
### END PREPROCESSING ###
Route 0 0-5-20-11-19-6-1-0 : weight util 0.905882 | volume util 0.617800 | 
Route 1 0-7-9-3-15-4-0 : weight util 0.988235 | volume util 0.324600 | 
Route 2 0-12-10-18-16-13-14-0 : weight util 0.976471 | volume util 0.954556 | 
Route 3 0-17-8-2-0 : weight util 1.000000 | volume util 0.343778 | 
